
        $ From http://www.csplib.org/Problems/prob009/data/helmut.pdf
        $ Problem number 104
        $ Sequence length : 25
        language ESSENCE' 1.0
        letting sizemaster be 363
        letting sizes be sequence(1,4,6,12,13,20,21,25,26,27,28,32,37,41,45,53,58,64,69,91,97,102,106,155,208)
        